60

 0   0   2   3   3   4   4   1   2   2   2   3   3   3   4   6   3   3   4   4   4   4   5   7   7   7   8   8   8   4   5   7   7   7   8   9   4   5   5   6   6   7   8   8  10  10   5   7   7   7   8   9   9  10  11   6   7   9   9  11  
 0   0   2   3   3   4   4   1   2   2   2   3   3   3   4   6   3   3   4   4   4   4   5   7   7   7   8   8   8   4   5   7   7   7   8   9   4   5   5   6   6   7   8   8  10  10   5   7   7   7   8   9   9  10  11   6   7   9   9  11  
 2   2   0   1   1   2   2   3   2   2   2   1   1   1   2   4   3   3   2   2   2   2   3   5   5   5   6   6   6   4   3   5   5   5   6   7   6   5   5   4   4   5   6   6   8   8   7   5   5   5   6   7   7   8   9   8   7   7   7   9  
 3   3   1   0   0   1   1   4   3   3   3   2   2   2   1   3   4   4   3   3   3   3   2   4   4   4   5   5   5   5   4   4   4   4   5   6   7   6   6   5   5   4   5   5   7   7   8   6   6   6   5   6   6   7   8   9   8   6   6   8  
 3   3   1   0   0   1   1   4   3   3   3   2   2   2   1   3   4   4   3   3   3   3   2   4   4   4   5   5   5   5   4   4   4   4   5   6   7   6   6   5   5   4   5   5   7   7   8   6   6   6   5   6   6   7   8   9   8   6   6   8  
 4   4   2   1   1   0   0   5   4   4   4   3   3   3   2   2   5   5   4   4   4   4   3   3   3   3   4   4   4   6   5   3   3   3   4   5   8   7   7   6   6   5   4   4   6   6   9   7   7   7   6   5   5   6   7  10   9   7   7   7  
 4   4   2   1   1   0   0   5   4   4   4   3   3   3   2   2   5   5   4   4   4   4   3   3   3   3   4   4   4   6   5   3   3   3   4   5   8   7   7   6   6   5   4   4   6   6   9   7   7   7   6   5   5   6   7  10   9   7   7   7  
 1   1   3   4   4   5   5   0   1   1   1   2   2   2   3   5   2   2   3   3   3   3   4   6   6   6   7   7   7   3   4   6   6   6   7   8   3   4   4   5   5   6   7   7   9   9   4   6   6   6   7   8   8   9  10   5   6   8   8  10  
 2   2   2   3   3   4   4   1   0   0   0   1   1   1   2   4   1   1   2   2   2   2   3   5   5   5   6   6   6   2   3   5   5   5   6   7   4   3   3   4   4   5   6   6   8   8   5   5   5   5   6   7   7   8   9   6   5   7   7   9  
 2   2   2   3   3   4   4   1   0   0   0   1   1   1   2   4   1   1   2   2   2   2   3   5   5   5   6   6   6   2   3   5   5   5   6   7   4   3   3   4   4   5   6   6   8   8   5   5   5   5   6   7   7   8   9   6   5   7   7   9  
 2   2   2   3   3   4   4   1   0   0   0   1   1   1   2   4   1   1   2   2   2   2   3   5   5   5   6   6   6   2   3   5   5   5   6   7   4   3   3   4   4   5   6   6   8   8   5   5   5   5   6   7   7   8   9   6   5   7   7   9  
 3   3   1   2   2   3   3   2   1   1   1   0   0   0   1   3   2   2   1   1   1   1   2   4   4   4   5   5   5   3   2   4   4   4   5   6   5   4   4   3   3   4   5   5   7   7   6   4   4   4   5   6   6   7   8   7   6   6   6   8  
 3   3   1   2   2   3   3   2   1   1   1   0   0   0   1   3   2   2   1   1   1   1   2   4   4   4   5   5   5   3   2   4   4   4   5   6   5   4   4   3   3   4   5   5   7   7   6   4   4   4   5   6   6   7   8   7   6   6   6   8  
 3   3   1   2   2   3   3   2   1   1   1   0   0   0   1   3   2   2   1   1   1   1   2   4   4   4   5   5   5   3   2   4   4   4   5   6   5   4   4   3   3   4   5   5   7   7   6   4   4   4   5   6   6   7   8   7   6   6   6   8  
 4   4   2   1   1   2   2   3   2   2   2   1   1   1   0   2   3   3   2   2   2   2   1   3   3   3   4   4   4   4   3   3   3   3   4   5   6   5   5   4   4   3   4   4   6   6   7   5   5   5   4   5   5   6   7   8   7   5   5   7  
 6   6   4   3   3   2   2   5   4   4   4   3   3   3   2   0   5   5   4   4   4   4   3   1   1   1   2   2   2   6   5   3   3   3   2   3   8   7   7   6   6   5   4   4   4   4   9   7   7   7   6   5   5   4   5  10   9   7   7   5  
 3   3   3   4   4   5   5   2   1   1   1   2   2   2   3   5   0   0   1   1   1   1   2   4   4   4   5   5   5   1   2   4   4   4   5   6   3   2   2   3   3   4   5   5   7   7   4   4   4   4   5   6   6   7   8   5   4   6   6   8  
 3   3   3   4   4   5   5   2   1   1   1   2   2   2   3   5   0   0   1   1   1   1   2   4   4   4   5   5   5   1   2   4   4   4   5   6   3   2   2   3   3   4   5   5   7   7   4   4   4   4   5   6   6   7   8   5   4   6   6   8  
 4   4   2   3   3   4   4   3   2   2   2   1   1   1   2   4   1   1   0   0   0   0   1   3   3   3   4   4   4   2   1   3   3   3   4   5   4   3   3   2   2   3   4   4   6   6   5   3   3   3   4   5   5   6   7   6   5   5   5   7  
 4   4   2   3   3   4   4   3   2   2   2   1   1   1   2   4   1   1   0   0   0   0   1   3   3   3   4   4   4   2   1   3   3   3   4   5   4   3   3   2   2   3   4   4   6   6   5   3   3   3   4   5   5   6   7   6   5   5   5   7  
 4   4   2   3   3   4   4   3   2   2   2   1   1   1   2   4   1   1   0   0   0   0   1   3   3   3   4   4   4   2   1   3   3   3   4   5   4   3   3   2   2   3   4   4   6   6   5   3   3   3   4   5   5   6   7   6   5   5   5   7  
 4   4   2   3   3   4   4   3   2   2   2   1   1   1   2   4   1   1   0   0   0   0   1   3   3   3   4   4   4   2   1   3   3   3   4   5   4   3   3   2   2   3   4   4   6   6   5   3   3   3   4   5   5   6   7   6   5   5   5   7  
 5   5   3   2   2   3   3   4   3   3   3   2   2   2   1   3   2   2   1   1   1   1   0   2   2   2   3   3   3   3   2   2   2   2   3   4   5   4   4   3   3   2   3   3   5   5   6   4   4   4   3   4   4   5   6   7   6   4   4   6  
 7   7   5   4   4   3   3   6   5   5   5   4   4   4   3   1   4   4   3   3   3   3   2   0   0   0   1   1   1   5   4   2   2   2   1   2   7   6   6   5   5   4   3   3   3   3   8   6   6   6   5   4   4   3   4   9   8   6   6   4  
 7   7   5   4   4   3   3   6   5   5   5   4   4   4   3   1   4   4   3   3   3   3   2   0   0   0   1   1   1   5   4   2   2   2   1   2   7   6   6   5   5   4   3   3   3   3   8   6   6   6   5   4   4   3   4   9   8   6   6   4  
 7   7   5   4   4   3   3   6   5   5   5   4   4   4   3   1   4   4   3   3   3   3   2   0   0   0   1   1   1   5   4   2   2   2   1   2   7   6   6   5   5   4   3   3   3   3   8   6   6   6   5   4   4   3   4   9   8   6   6   4  
 8   8   6   5   5   4   4   7   6   6   6   5   5   5   4   2   5   5   4   4   4   4   3   1   1   1   0   0   0   6   5   3   3   3   2   1   8   7   7   6   6   5   4   4   2   2   9   7   7   7   6   5   5   4   3  10   9   7   7   5  
 8   8   6   5   5   4   4   7   6   6   6   5   5   5   4   2   5   5   4   4   4   4   3   1   1   1   0   0   0   6   5   3   3   3   2   1   8   7   7   6   6   5   4   4   2   2   9   7   7   7   6   5   5   4   3  10   9   7   7   5  
 8   8   6   5   5   4   4   7   6   6   6   5   5   5   4   2   5   5   4   4   4   4   3   1   1   1   0   0   0   6   5   3   3   3   2   1   8   7   7   6   6   5   4   4   2   2   9   7   7   7   6   5   5   4   3  10   9   7   7   5  
 4   4   4   5   5   6   6   3   2   2   2   3   3   3   4   6   1   1   2   2   2   2   3   5   5   5   6   6   6   0   1   3   3   3   4   5   2   1   1   2   2   3   4   4   6   6   3   3   3   3   4   5   5   6   7   4   3   5   5   7  
 5   5   3   4   4   5   5   4   3   3   3   2   2   2   3   5   2   2   1   1   1   1   2   4   4   4   5   5   5   1   0   2   2   2   3   4   3   2   2   1   1   2   3   3   5   5   4   2   2   2   3   4   4   5   6   5   4   4   4   6  
 7   7   5   4   4   3   3   6   5   5   5   4   4   4   3   3   4   4   3   3   3   3   2   2   2   2   3   3   3   3   2   0   0   0   1   2   5   4   4   3   3   2   1   1   3   3   6   4   4   4   3   2   2   3   4   7   6   4   4   4  
 7   7   5   4   4   3   3   6   5   5   5   4   4   4   3   3   4   4   3   3   3   3   2   2   2   2   3   3   3   3   2   0   0   0   1   2   5   4   4   3   3   2   1   1   3   3   6   4   4   4   3   2   2   3   4   7   6   4   4   4  
 7   7   5   4   4   3   3   6   5   5   5   4   4   4   3   3   4   4   3   3   3   3   2   2   2   2   3   3   3   3   2   0   0   0   1   2   5   4   4   3   3   2   1   1   3   3   6   4   4   4   3   2   2   3   4   7   6   4   4   4  
 8   8   6   5   5   4   4   7   6   6   6   5   5   5   4   2   5   5   4   4   4   4   3   1   1   1   2   2   2   4   3   1   1   1   0   1   6   5   5   4   4   3   2   2   2   2   7   5   5   5   4   3   3   2   3   8   7   5   5   3  
 9   9   7   6   6   5   5   8   7   7   7   6   6   6   5   3   6   6   5   5   5   5   4   2   2   2   1   1   1   5   4   2   2   2   1   0   7   6   6   5   5   4   3   3   1   1   8   6   6   6   5   4   4   3   2   9   8   6   6   4  
 4   4   6   7   7   8   8   3   4   4   4   5   5   5   6   8   3   3   4   4   4   4   5   7   7   7   8   8   8   2   3   5   5   5   6   7   0   1   1   2   2   3   4   4   6   6   1   3   3   3   4   5   5   6   7   2   3   5   5   7  
 5   5   5   6   6   7   7   4   3   3   3   4   4   4   5   7   2   2   3   3   3   3   4   6   6   6   7   7   7   1   2   4   4   4   5   6   1   0   0   1   1   2   3   3   5   5   2   2   2   2   3   4   4   5   6   3   2   4   4   6  
 5   5   5   6   6   7   7   4   3   3   3   4   4   4   5   7   2   2   3   3   3   3   4   6   6   6   7   7   7   1   2   4   4   4   5   6   1   0   0   1   1   2   3   3   5   5   2   2   2   2   3   4   4   5   6   3   2   4   4   6  
 6   6   4   5   5   6   6   5   4   4   4   3   3   3   4   6   3   3   2   2   2   2   3   5   5   5   6   6   6   2   1   3   3   3   4   5   2   1   1   0   0   1   2   2   4   4   3   1   1   1   2   3   3   4   5   4   3   3   3   5  
 6   6   4   5   5   6   6   5   4   4   4   3   3   3   4   6   3   3   2   2   2   2   3   5   5   5   6   6   6   2   1   3   3   3   4   5   2   1   1   0   0   1   2   2   4   4   3   1   1   1   2   3   3   4   5   4   3   3   3   5  
 7   7   5   4   4   5   5   6   5   5   5   4   4   4   3   5   4   4   3   3   3   3   2   4   4   4   5   5   5   3   2   2   2   2   3   4   3   2   2   1   1   0   1   1   3   3   4   2   2   2   1   2   2   3   4   5   4   2   2   4  
 8   8   6   5   5   4   4   7   6   6   6   5   5   5   4   4   5   5   4   4   4   4   3   3   3   3   4   4   4   4   3   1   1   1   2   3   4   3   3   2   2   1   0   0   2   2   5   3   3   3   2   1   1   2   3   6   5   3   3   3  
 8   8   6   5   5   4   4   7   6   6   6   5   5   5   4   4   5   5   4   4   4   4   3   3   3   3   4   4   4   4   3   1   1   1   2   3   4   3   3   2   2   1   0   0   2   2   5   3   3   3   2   1   1   2   3   6   5   3   3   3  
10  10   8   7   7   6   6   9   8   8   8   7   7   7   6   4   7   7   6   6   6   6   5   3   3   3   2   2   2   6   5   3   3   3   2   1   6   5   5   4   4   3   2   2   0   0   7   5   5   5   4   3   3   2   1   8   7   5   5   3  
10  10   8   7   7   6   6   9   8   8   8   7   7   7   6   4   7   7   6   6   6   6   5   3   3   3   2   2   2   6   5   3   3   3   2   1   6   5   5   4   4   3   2   2   0   0   7   5   5   5   4   3   3   2   1   8   7   5   5   3  
 5   5   7   8   8   9   9   4   5   5   5   6   6   6   7   9   4   4   5   5   5   5   6   8   8   8   9   9   9   3   4   6   6   6   7   8   1   2   2   3   3   4   5   5   7   7   0   2   2   2   3   4   4   5   6   1   2   4   4   6  
 7   7   5   6   6   7   7   6   5   5   5   4   4   4   5   7   4   4   3   3   3   3   4   6   6   6   7   7   7   3   2   4   4   4   5   6   3   2   2   1   1   2   3   3   5   5   2   0   0   0   1   2   2   3   4   3   2   2   2   4  
 7   7   5   6   6   7   7   6   5   5   5   4   4   4   5   7   4   4   3   3   3   3   4   6   6   6   7   7   7   3   2   4   4   4   5   6   3   2   2   1   1   2   3   3   5   5   2   0   0   0   1   2   2   3   4   3   2   2   2   4  
 7   7   5   6   6   7   7   6   5   5   5   4   4   4   5   7   4   4   3   3   3   3   4   6   6   6   7   7   7   3   2   4   4   4   5   6   3   2   2   1   1   2   3   3   5   5   2   0   0   0   1   2   2   3   4   3   2   2   2   4  
 8   8   6   5   5   6   6   7   6   6   6   5   5   5   4   6   5   5   4   4   4   4   3   5   5   5   6   6   6   4   3   3   3   3   4   5   4   3   3   2   2   1   2   2   4   4   3   1   1   1   0   1   1   2   3   4   3   1   1   3  
 9   9   7   6   6   5   5   8   7   7   7   6   6   6   5   5   6   6   5   5   5   5   4   4   4   4   5   5   5   5   4   2   2   2   3   4   5   4   4   3   3   2   1   1   3   3   4   2   2   2   1   0   0   1   2   5   4   2   2   2  
 9   9   7   6   6   5   5   8   7   7   7   6   6   6   5   5   6   6   5   5   5   5   4   4   4   4   5   5   5   5   4   2   2   2   3   4   5   4   4   3   3   2   1   1   3   3   4   2   2   2   1   0   0   1   2   5   4   2   2   2  
10  10   8   7   7   6   6   9   8   8   8   7   7   7   6   4   7   7   6   6   6   6   5   3   3   3   4   4   4   6   5   3   3   3   2   3   6   5   5   4   4   3   2   2   2   2   5   3   3   3   2   1   1   0   1   6   5   3   3   1  
11  11   9   8   8   7   7  10   9   9   9   8   8   8   7   5   8   8   7   7   7   7   6   4   4   4   3   3   3   7   6   4   4   4   3   2   7   6   6   5   5   4   3   3   1   1   6   4   4   4   3   2   2   1   0   7   6   4   4   2  
 6   6   8   9   9  10  10   5   6   6   6   7   7   7   8  10   5   5   6   6   6   6   7   9   9   9  10  10  10   4   5   7   7   7   8   9   2   3   3   4   4   5   6   6   8   8   1   3   3   3   4   5   5   6   7   0   1   3   3   5  
 7   7   7   8   8   9   9   6   5   5   5   6   6   6   7   9   4   4   5   5   5   5   6   8   8   8   9   9   9   3   4   6   6   6   7   8   3   2   2   3   3   4   5   5   7   7   2   2   2   2   3   4   4   5   6   1   0   2   2   4  
 9   9   7   6   6   7   7   8   7   7   7   6   6   6   5   7   6   6   5   5   5   5   4   6   6   6   7   7   7   5   4   4   4   4   5   6   5   4   4   3   3   2   3   3   5   5   4   2   2   2   1   2   2   3   4   3   2   0   0   2  
 9   9   7   6   6   7   7   8   7   7   7   6   6   6   5   7   6   6   5   5   5   5   4   6   6   6   7   7   7   5   4   4   4   4   5   6   5   4   4   3   3   2   3   3   5   5   4   2   2   2   1   2   2   3   4   3   2   0   0   2  
11  11   9   8   8   7   7  10   9   9   9   8   8   8   7   5   8   8   7   7   7   7   6   4   4   4   5   5   5   7   6   4   4   4   3   4   7   6   6   5   5   4   3   3   3   3   6   4   4   4   3   2   2   1   2   5   4   2   2   0  

 0  26  22  18  22  22  22  17  22  22  22  22  22  27  22  31  22  22  22  17  26  22  22  26  18  22  22  22  22  17  27  22  22  31  22  22  22  22  17  22  22  18  18  22  22  22  22  27  22  17  22  26  17  22  27  27  18  27  22  18  
 0   0  35  15  17  35  26  14  22  22  13  27  22  25  22  18  17  17  35  22   0  27  35  14  38  22  27  17  22  23  32  27  26  26  23  26  13  23  27  22  22  31  30  22  34  22   8  31   4  26  18  13  23  17  15  18  30   8  26  18  
 0   0   0  18  22  26   4  26  22  22  40  12  26  32  22  26  22  18  13  14  35  22  13  22  22  31  26  22  13  31  26  22  22  13  22  22  31  18   8  26  22  21  18  27  13  18  22  12  37  26  31  13  17  22  26  22  22  40  32  22  
 0   0   0   0  19  34  22  17  22  22  23  26  22  27  22  39  22  17  26  14  22  22  26  21  26  22  26  22  13  23  25  32  27  27  21  26  22  14  22  25  22  18  18  22  34  18  22  23  17  30  22  26  24  22  17  14  32  22  22  10  
 0   0   0   0   0  22  23  18  22  23  18  27  20  25  22  22  23  21  28  25  20  24  26  16  22  22  22  21  22  22  23  22  21  21  24  26  25  18  25  22  25  20  19  21  25  23  22  18  18  24  22  25  21  22  22  22  22  21  25  22  
 0   0   0   0   0   0  32  22  22  22  22  27  28  27  17  13  27  32  27  40  22  22  22  22   9  21   2  22  22  11  13  23  14  22  22  28  22  15  16  12  28  17  22  17   9  31  27  22  27  18  22  27  24  27  26  30  29  27  28  29  
 0   0   0   0   0   0   0  22  22  21  39  17  22  17  27  27  16  23   8  23  30  22  13  21  27  26  32  23  13  36  27  27  22  13  21  22  30  27   4  22  22  36  23  37  19  16  17  23  26  22  31   7  13  17  23  22  17  35  22  17  
 0   0   0   0   0   0   0   0  22  22  23  21  18  31  22  21  16  21  26  25  16  16  26  17  22  28  28  22  25  18  27  20  25  33  22  26  22  18  19  21  22  22  26  26  32  22  22  28  21  21  16  25  22  22  27  27  19  27  22  22  
 0   0   0   0   0   0   0   0   0  24  22  22  21  20  22  22  22  22  26  24  22  24  17  22  20  22  22  22  27  22  26  20  22  22  24  22  22  27  22  27  22  22  18  27  27  17  31  22  22  22  24  24  22  23  22  15  22  19  20  22  
 0   0   0   0   0   0   0   0   0   0  21  22  22  24  22  15  17  23  22  21  21  20  22  21  24  22  22  30  22  22  22  24  22  22  19  29  32  26  33  22  18  22  23  23  23  21  22  23  22  15  20  19  22  22  23  24  22  16  24  22  
 0   0   0   0   0   0   0   0   0   0   0  21  20  22  22  22  21  24  33  23  15  24  31  19  22  13  22  23  31  12  22  21  24  31  21  22  14  22  43  23  25  11  21  14  32  21  22  19  14  20  13  32  30  22  23  22  21   3  25  22  
 0   0   0   0   0   0   0   0   0   0   0   0  22  24  27  21  16  28  13  18  28  11  18  27  27  23  33  27  22  21  21  21  31  29  21  18  22  26  28  23  22  12  22  22  29  17  22  11  37  18  16  22  28  22  21  22  16  22  32  17  
 0   0   0   0   0   0   0   0   0   0   0   0   0  22  22  22  22  17  24  20  20  24  22  22  17  28  28  23  22  31  17  16  22  22  22  16  25  27  24  28  16  20  25  26  22  22  22  21  30  20  26  24  14  24  22  18  11  25  12  28  
 0   0   0   0   0   0   0   0   0   0   0   0   0   0  27  22  22  27  13  25  25  19  18  26  25  17  27  27  22  27  18  20  26  16  25  18  22  26  27  22  22  32  22  22  23  17  22  27  16  23  24  24  28  22  18  15  17  19  10  17  
 0   0   0   0   0   0   0   0   0   0   0   0   0   0   0  17  22  17  27  22  22  27  22  22  17  27  17  17  22  22  22  22  22  22  22  22  22  22  22  22  22  22  22  22  17  27  22  22  22  22  22  22  22  22  22  22  27  22  22  27  
 0   0   0   0   0   0   0   0   0   0   0   0   0   0   0   0  12  21  27  31  18  21  22  18  21  33  19  24  31  27  13  13  28  19  22  22  26  30  37  18  18  26  26  22  23  31  22  17  22  23  16  18  29  22  13  17  26  13  22  31  
 0   0   0   0   0   0   0   0   0   0   0   0   0   0   0   0   0  18  22  23  21  21  22  21  22  28  33  22  22  27  27  27  28  28  21  22  25  31  32  22  18  27  23  28  29  21  17  23  17  22  16  16  28  17  23  22  22  13  22  22  
 0   0   0   0   0   0   0   0   0   0   0   0   0   0   0   0   0   0  27  11  22  32  22  22  18  33  32  10  22  35  31  22  23  22  23  16  22  30  28  31  16  27  21  26  16  24  17  23  16  26  22  18  19  16  25  22  19  16  16  33  
 0   0   0   0   0   0   0   0   0   0   0   0   0   0   0   0   0   0   0  18  33  15   9  26  27  17  27  27  22  22  22  22  26  13  22  18  29  26  13  22  22  24  24  31  23  17  27  13  35  20  22  20  24  22  22  22  17  29  22  17  
 0   0   0   0   0   0   0   0   0   0   0   0   0   0   0   0   0   0   0   0  31  20  18  27  32  28  32  21  22  23  31  18  34  27  21  12  23  28  27  32  16  22  17  17  25  19  22  26  22  17  20  21  15  22  22  21  24  25  18  20  
 0   0   0   0   0   0   0   0   0   0   0   0   0   0   0   0   0   0   0   0   0  20  35  12  26  22  28  23  19  23  23  26  19  26  22  26  10  18  27  21  22  28  33  18  27  21  13  33  12  28  22  12  24  28  24  22  23  11  22  26  
 0   0   0   0   0   0   0   0   0   0   0   0   0   0   0   0   0   0   0   0   0   0  22  22  29  23  28  32  22  17  17  19  28  28  20  22  20  17  28  22  22  19  24  17  33  17  27  22  27  24  14  23  30  27  22  24  17  23  24  17  
 0   0   0   0   0   0   0   0   0   0   0   0   0   0   0   0   0   0   0   0   0   0   0  26  22  22  22  22  27  22  27  22  26  13  22  18  31  31  13  27  22  22  17  36  23  17  36  13  35  18  22  22  22  22  22  17  22  26  22  22  
 0   0   0   0   0   0   0   0   0   0   0   0   0   0   0   0   0   0   0   0   0   0   0   0  26  22  22  23  22  23  22  23  22  18  21  26  21  18  25  21  25  26  27  23  27  21  22  21  17  26  22  17  21  22  23  22  27  19  25  26  
 0   0   0   0   0   0   0   0   0   0   0   0   0   0   0   0   0   0   0   0   0   0   0   0   0  27  17  18  22  25  18  20  14  26  24  22  23  21  22  22  22  18  18  22   9  27  22  21  26  22  28  28  22  23  30  24  14  25  16  31  
 0   0   0   0   0   0   0   0   0   0   0   0   0   0   0   0   0   0   0   0   0   0   0   0   0   0  15  27  31   7  22  28  16  16  22  28  22  16  19  16  28  13  22  22  30  17  31  13  22  22  19  31  31  22  22  22  23  13  28  11  
 0   0   0   0   0   0   0   0   0   0   0   0   0   0   0   0   0   0   0   0   0   0   0   0   0   0   0  22  22  11  13  23  16  16  22  28  22  15  10  12  28  17  22  17  11  31  27  22  27  18  28  27  18  21  18  22  37  27  28  21  
 0   0   0   0   0   0   0   0   0   0   0   0   0   0   0   0   0   0   0   0   0   0   0   0   0   0   0   0  22  28  27  27  22  22  23  22  18  24  18  22  26  27  21  26  16  28  17  22  17  22  22  18  22  16  21  22  28  20  22  27  
 0   0   0   0   0   0   0   0   0   0   0   0   0   0   0   0   0   0   0   0   0   0   0   0   0   0   0   0   0  31  17  34  22  22  22  22  22  17  13  17  22  31  27  17   8  27   8  31  22  22  31  10  13  22  22  27  31  36  22  22  
 0   0   0   0   0   0   0   0   0   0   0   0   0   0   0   0   0   0   0   0   0   0   0   0   0   0   0   0   0   0  26  22  21  27  22  28  23  10  20  17  28   8  22  17  31  22  36  16  24  17   9  36  33  28  27  31  26  24  32  16  
 0   0   0   0   0   0   0   0   0   0   0   0   0   0   0   0   0   0   0   0   0   0   0   0   0   0   0   0   0   0   0  17  22  18  21  22  22  16  27  13  22  17  28  12  17  31  22  17  31  23  26  27  22  28  12  18  26  27  18  22  
 0   0   0   0   0   0   0   0   0   0   0   0   0   0   0   0   0   0   0   0   0   0   0   0   0   0   0   0   0   0   0   0  21  22  24  16  22  23  28  29  16  17  22  17  22  22  27  21  28  22  24  32  17  27  22  20   6  29  14  28  
 0   0   0   0   0   0   0   0   0   0   0   0   0   0   0   0   0   0   0   0   0   0   0   0   0   0   0   0   0   0   0   0   0  16  22  26  22  18  13  23  19  22  22  22  12  22  22  24  19  26  28  22  17  22  30  30  13  25  19  30  
 0   0   0   0   0   0   0   0   0   0   0   0   0   0   0   0   0   0   0   0   0   0   0   0   0   0   0   0   0   0   0   0   0   0  23  22  31  22  12  22  22  26  26  31  16  22  31   8  31  27  28  18  22  22  18  17  26  26  22  26  
 0   0   0   0   0   0   0   0   0   0   0   0   0   0   0   0   0   0   0   0   0   0   0   0   0   0   0   0   0   0   0   0   0   0   0  22  21  22  22  22  22  22  23  23  23  21  22  23  22  22  20  19  21  22  22  24  22  20  24  22  
 0   0   0   0   0   0   0   0   0   0   0   0   0   0   0   0   0   0   0   0   0   0   0   0   0   0   0   0   0   0   0   0   0   0   0   0  15  32  21  28  16  22  22  22  18  22  22  22  26  25  22  22  16  22  22  22  16  22  16  28  
 0   0   0   0   0   0   0   0   0   0   0   0   0   0   0   0   0   0   0   0   0   0   0   0   0   0   0   0   0   0   0   0   0   0   0   0   0  19  20  22  26  24  25  14  23  21  13  33  13  31  22  19  24  21  23  22  23  14  22  22  
 0   0   0   0   0   0   0   0   0   0   0   0   0   0   0   0   0   0   0   0   0   0   0   0   0   0   0   0   0   0   0   0   0   0   0   0   0   0  12  15  32  17  27  12  21  23  22  21  23  30  22  27  32  28  26  27  23  37  28  16  
 0   0   0   0   0   0   0   0   0   0   0   0   0   0   0   0   0   0   0   0   0   0   0   0   0   0   0   0   0   0   0   0   0   0   0   0   0   0   0  16  29  31  26  35   7  22  22  30  35  24  37  13   8  22  27  27  24  52  25  16  
 0   0   0   0   0   0   0   0   0   0   0   0   0   0   0   0   0   0   0   0   0   0   0   0   0   0   0   0   0   0   0   0   0   0   0   0   0   0   0   0  28  22  27  17  17  31  17  23  21  18  22  22  23  22  18  27  33  27  28  16  
 0   0   0   0   0   0   0   0   0   0   0   0   0   0   0   0   0   0   0   0   0   0   0   0   0   0   0   0   0   0   0   0   0   0   0   0   0   0   0   0   0  22  22  22  22  22  22  25  22  22  22  22  16  22  22  22  16  21  13  28  
 0   0   0   0   0   0   0   0   0   0   0   0   0   0   0   0   0   0   0   0   0   0   0   0   0   0   0   0   0   0   0   0   0   0   0   0   0   0   0   0   0   0  16  17  31  22  36   3  37  20  13  42  29  27  22  22  18  20  32  18  
 0   0   0   0   0   0   0   0   0   0   0   0   0   0   0   0   0   0   0   0   0   0   0   0   0   0   0   0   0   0   0   0   0   0   0   0   0   0   0   0   0   0   0  22  26  18  27  21  18  20  22  29  20  21  21  17  22  19  22  18  
 0   0   0   0   0   0   0   0   0   0   0   0   0   0   0   0   0   0   0   0   0   0   0   0   0   0   0   0   0   0   0   0   0   0   0   0   0   0   0   0   0   0   0   0  16  28  13  30  14  22  22  28  22  27  21  27  26  23  22  22  
 0   0   0   0   0   0   0   0   0   0   0   0   0   0   0   0   0   0   0   0   0   0   0   0   0   0   0   0   0   0   0   0   0   0   0   0   0   0   0   0   0   0   0   0   0  33   8  30  26  18  37  14   7  22  29  35  19  36  22  35  
 0   0   0   0   0   0   0   0   0   0   0   0   0   0   0   0   0   0   0   0   0   0   0   0   0   0   0   0   0   0   0   0   0   0   0   0   0   0   0   0   0   0   0   0   0   0  27  23  22  26  22  21  26  22  27  17  13  17  22  17  
 0   0   0   0   0   0   0   0   0   0   0   0   0   0   0   0   0   0   0   0   0   0   0   0   0   0   0   0   0   0   0   0   0   0   0   0   0   0   0   0   0   0   0   0   0   0   0  40   8  22  31   8  13  17  22  27  22  22  22  22  
 0   0   0   0   0   0   0   0   0   0   0   0   0   0   0   0   0   0   0   0   0   0   0   0   0   0   0   0   0   0   0   0   0   0   0   0   0   0   0   0   0   0   0   0   0   0   0   0  42  27  13  32  37  23  16  17  20  15  35  22  
 0   0   0   0   0   0   0   0   0   0   0   0   0   0   0   0   0   0   0   0   0   0   0   0   0   0   0   0   0   0   0   0   0   0   0   0   0   0   0   0   0   0   0   0   0   0   0   0   0  26  18  17  21  17  22  26  27   8  16  22  
 0   0   0   0   0   0   0   0   0   0   0   0   0   0   0   0   0   0   0   0   0   0   0   0   0   0   0   0   0   0   0   0   0   0   0   0   0   0   0   0   0   0   0   0   0   0   0   0   0   0  22  24  11  22  23  27  26  29  22  22  
 0   0   0   0   0   0   0   0   0   0   0   0   0   0   0   0   0   0   0   0   0   0   0   0   0   0   0   0   0   0   0   0   0   0   0   0   0   0   0   0   0   0   0   0   0   0   0   0   0   0   0  29  37  22  22  28  22  11  28  22  
 0   0   0   0   0   0   0   0   0   0   0   0   0   0   0   0   0   0   0   0   0   0   0   0   0   0   0   0   0   0   0   0   0   0   0   0   0   0   0   0   0   0   0   0   0   0   0   0   0   0   0   0  15  17  23  24  26  22  24  26  
 0   0   0   0   0   0   0   0   0   0   0   0   0   0   0   0   0   0   0   0   0   0   0   0   0   0   0   0   0   0   0   0   0   0   0   0   0   0   0   0   0   0   0   0   0   0   0   0   0   0   0   0   0  22  22  27  21  38  16  28  
 0   0   0   0   0   0   0   0   0   0   0   0   0   0   0   0   0   0   0   0   0   0   0   0   0   0   0   0   0   0   0   0   0   0   0   0   0   0   0   0   0   0   0   0   0   0   0   0   0   0   0   0   0   0  22  22  23  16  22  22  
 0   0   0   0   0   0   0   0   0   0   0   0   0   0   0   0   0   0   0   0   0   0   0   0   0   0   0   0   0   0   0   0   0   0   0   0   0   0   0   0   0   0   0   0   0   0   0   0   0   0   0   0   0   0   0   9  34  17  22  14  
 0   0   0   0   0   0   0   0   0   0   0   0   0   0   0   0   0   0   0   0   0   0   0   0   0   0   0   0   0   0   0   0   0   0   0   0   0   0   0   0   0   0   0   0   0   0   0   0   0   0   0   0   0   0   0   0  30  14  16  14  
 0   0   0   0   0   0   0   0   0   0   0   0   0   0   0   0   0   0   0   0   0   0   0   0   0   0   0   0   0   0   0   0   0   0   0   0   0   0   0   0   0   0   0   0   0   0   0   0   0   0   0   0   0   0   0   0   0  23  16  27  
 0   0   0   0   0   0   0   0   0   0   0   0   0   0   0   0   0   0   0   0   0   0   0   0   0   0   0   0   0   0   0   0   0   0   0   0   0   0   0   0   0   0   0   0   0   0   0   0   0   0   0   0   0   0   0   0   0   0  27  22  
 0   0   0   0   0   0   0   0   0   0   0   0   0   0   0   0   0   0   0   0   0   0   0   0   0   0   0   0   0   0   0   0   0   0   0   0   0   0   0   0   0   0   0   0   0   0   0   0   0   0   0   0   0   0   0   0   0   0   0  28  
 0   0   0   0   0   0   0   0   0   0   0   0   0   0   0   0   0   0   0   0   0   0   0   0   0   0   0   0   0   0   0   0   0   0   0   0   0   0   0   0   0   0   0   0   0   0   0   0   0   0   0   0   0   0   0   0   0   0   0   0  
